
Log started (V11.0.0) Fri May 16 17:02:02 2008

Tried aggregator 1 time.
Reduced MIP has 250 rows, 10001 columns, and 20050 nonzeros.
Presolve time =    0.08 sec.
Clique table members: 200.
MIP emphasis: balance optimality and feasibility.
MIP search method: dynamic search.
Parallel mode: none, using 1 thread.
Root relaxation solution time =    0.45 sec.

        Nodes                                         Cuts/
   Node  Left     Objective  IInf  Best Integer     Best Node    ItCnt     Gap

*     0+    0                        12500.0000      104.4861      727   99.16%
*     0+    0                          159.0000      104.4861      727   34.29%
      0     0      105.0000    87      159.0000      Fract: 7      753   33.96%
*     0+    0                          147.0000      105.0000      753   28.57%
      0     0      105.0000    88      147.0000       Cuts: 9      946   28.57%
*     0+    0                          146.0000      105.0000      946   28.08%
      0     0      105.3587    93      146.0000      Cuts: 26     1674   27.84%
      0     0      110.4787    84      146.0000      Cuts: 44     2151   24.33%
*     0+    0                          145.0000      110.4787     2151   23.81%
      0     0      110.7901    85      145.0000      Cuts: 20     2255   23.59%
      0     0      110.7901    99      145.0000      Cuts: 16     2295   23.59%
*     0+    0                          142.0000      110.7901     2295   21.98%
*     0+    0                          140.0000      110.7901     2295   20.86%
*     0+    0                          138.0000      110.7901     2295   19.72%
*     0+    0                          131.0000      110.7901     2295   15.43%
*     0+    0                          129.0000      110.7901     2295   14.12%
      0     2      110.7901    99      129.0000      110.7901     2295   14.12%
*    10+    9                          128.0000      110.7975     2400   13.44%
*    20+   19                          127.0000      110.7975     2518   12.76%
*    30+   28                          125.0000      110.7975     2979   11.36%
*    30+   28                          122.0000      110.7975     2979    9.18%
*    80+   78                          121.0000      110.7975     3898    8.43%
*   100+   95                          120.0000      110.7975     4953    7.67%
    100    97      112.0000    46      120.0000      110.7975     4953    7.67%
*   110+  104                          119.0000      110.7975     5301    6.89%
    200   181      114.0000    35      119.0000      110.7975     6398    6.89%
    300   241      114.0000    38      119.0000      110.7975     8966    6.89%
    400   294      114.2921    41      119.0000      110.7975    11654    6.89%
    500   350      116.0000    28      119.0000      110.7975    13759    6.89%
*   506+  236                          118.0000      114.6754    16093    2.82%
*   506+  157                          117.0000      114.9553    16319    1.75%
    600   188      116.0000    28      117.0000      114.9699    18034    1.74%
    700   174    infeasible            117.0000      114.9699    20277    1.74%
    800   228      116.0000    14      117.0000      114.9739    22473    1.73%
    900   294    infeasible            117.0000      114.9739    25406    1.73%
*   906+    5                          116.0000      114.9739    25568    0.88%

Clique cuts applied:  1
Cover cuts applied:  63
Implied bound cuts applied:  22
Mixed integer rounding cuts applied:  25
Gomory fractional cuts applied:  5

Solution pool: 20 solutions saved.

MIP - Integer optimal solution:  Objective = 1.1600000000e+002
Solution time =   49.23 sec.  Iterations = 25616  Nodes = 912


Incumbent solution
Variable Name           Solution Value
Cmax                        116.000000
X_1_8                         1.000000
X_2_9                         1.000000
X_3_14                        1.000000
X_4_18                        1.000000
X_5_24                        1.000000
X_6_23                        1.000000
X_7_14                        1.000000
X_8_41                        1.000000
X_9_43                        1.000000
X_10_48                       1.000000
X_11_23                       1.000000
X_12_14                       1.000000
X_13_1                        1.000000
X_14_35                       1.000000
X_15_42                       1.000000
X_16_13                       1.000000
X_17_31                       1.000000
X_18_20                       1.000000
X_19_15                       1.000000
X_20_23                       1.000000
X_21_27                       1.000000
X_22_26                       1.000000
X_23_45                       1.000000
X_24_23                       1.000000
X_25_37                       1.000000
X_26_31                       1.000000
X_27_14                       1.000000
X_28_14                       1.000000
X_29_18                       1.000000
X_30_14                       1.000000
X_31_46                       1.000000
X_32_18                       1.000000
X_33_47                       1.000000
X_34_19                       1.000000
X_35_23                       1.000000
X_36_31                       1.000000
X_37_31                       1.000000
X_38_24                       1.000000
X_39_40                       1.000000
X_40_20                       1.000000
X_41_31                       1.000000
X_42_28                       1.000000
X_43_14                       1.000000
X_44_31                       1.000000
X_45_31                       1.000000
X_46_18                       1.000000
X_47_37                       1.000000
X_48_24                       1.000000
X_49_11                       1.000000
X_50_14                       1.000000
X_51_36                       1.000000
X_52_20                       1.000000
X_53_5                        1.000000
X_54_14                       1.000000
X_55_14                       1.000000
X_56_24                       1.000000
X_57_18                       1.000000
X_58_31                       1.000000
X_59_31                       1.000000
X_60_31                       1.000000
X_61_31                       1.000000
X_62_5                        1.000000
X_63_23                       1.000000
X_64_15                       1.000000
X_65_15                       1.000000
X_66_33                       1.000000
X_67_37                       1.000000
X_68_15                       1.000000
X_69_31                       1.000000
X_70_31                       1.000000
X_71_2                        1.000000
X_72_47                       1.000000
X_73_37                       1.000000
X_74_20                       1.000000
X_75_46                       1.000000
X_76_31                       1.000000
X_77_39                       1.000000
X_78_35                       1.000000
X_79_28                       1.000000
X_80_23                       1.000000
X_81_17                       1.000000
X_82_37                       1.000000
X_83_23                       1.000000
X_84_37                       1.000000
X_85_23                       1.000000
X_86_37                       1.000000
X_87_25                       1.000000
X_88_14                       1.000000
X_89_4                        1.000000
X_90_29                       1.000000
X_91_24                       1.000000
X_92_23                       1.000000
X_93_25                       1.000000
X_94_47                       1.000000
X_95_15                       1.000000
X_96_24                       1.000000
X_97_33                       1.000000
X_98_21                       1.000000
X_99_37                       1.000000
X_100_21                      1.000000
X_101_7                       1.000000
X_102_31                      1.000000
X_103_40                      1.000000
X_104_50                      1.000000
X_105_23                      1.000000
X_106_14                      1.000000
X_107_14                      1.000000
X_108_34                      1.000000
X_109_23                      1.000000
X_110_37                      1.000000
X_111_18                      1.000000
X_112_18                      1.000000
X_113_31                      1.000000
X_114_37                      1.000000
X_115_15                      1.000000
X_116_29                      1.000000
X_117_15                      1.000000
X_118_25                      1.000000
X_119_31                      1.000000
X_120_7                       1.000000
X_121_18                      1.000000
X_122_33                      1.000000
X_123_23                      1.000000
X_124_23                      1.000000
X_125_31                      1.000000
X_126_23                      1.000000
X_127_21                      1.000000
X_128_49                      1.000000
X_129_37                      1.000000
X_130_31                      1.000000
X_131_5                       1.000000
X_132_14                      1.000000
X_133_33                      1.000000
X_134_15                      1.000000
X_135_15                      1.000000
X_136_31                      1.000000
X_137_18                      1.000000
X_138_15                      1.000000
X_139_15                      1.000000
X_140_31                      1.000000
X_141_8                       1.000000
X_142_24                      1.000000
X_143_46                      1.000000
X_144_32                      1.000000
X_145_5                       1.000000
X_146_16                      1.000000
X_147_18                      1.000000
X_148_23                      1.000000
X_149_47                      1.000000
X_150_14                      1.000000
X_151_1                       1.000000
X_152_18                      1.000000
X_153_2                       1.000000
X_154_31                      1.000000
X_155_23                      1.000000
X_156_44                      1.000000
X_157_12                      1.000000
X_158_18                      1.000000
X_159_31                      1.000000
X_160_11                      1.000000
X_161_31                      1.000000
X_162_46                      1.000000
X_163_31                      1.000000
X_164_31                      1.000000
X_165_15                      1.000000
X_166_31                      1.000000
X_167_38                      1.000000
X_168_14                      1.000000
X_169_14                      1.000000
X_170_11                      1.000000
X_171_14                      1.000000
X_172_31                      1.000000
X_173_3                       1.000000
X_174_31                      1.000000
X_175_50                      1.000000
X_176_15                      1.000000
X_177_14                      1.000000
X_178_16                      1.000000
X_179_14                      1.000000
X_180_11                      1.000000
X_181_31                      1.000000
X_182_14                      1.000000
X_183_31                      1.000000
X_184_1                       1.000000
X_185_37                      1.000000
X_186_22                      1.000000
X_187_37                      1.000000
X_188_14                      1.000000
X_189_43                      1.000000
X_190_8                       1.000000
X_191_30                      1.000000
X_192_15                      1.000000
X_193_31                      1.000000
X_194_25                      1.000000
X_195_10                      1.000000
X_196_24                      1.000000
X_197_23                      1.000000
X_198_14                      1.000000
X_199_6                       1.000000
X_200_31                      1.000000
All other variables in the range 1-10001 are 0.
